SPARKNaCl/why3-cvc5/sparknacl-aes.adb_645_13_range_check8_1.smt2
;; produced by cvc5.drv ;;
(set-logic ALL)
(set-info :smt-lib-version 2.6)
;;; generated by SMT-LIB2 driver
;;; SMT-LIB2 driver: bit-vectors, common part
;;; SMT-LIB2: integer arithmetic
(define-fun __cdiv ((x Int) (y Int)) Int (ite (>= x 0) (div x y) (- (div (- x) y))))
(define-fun __cmod ((x Int) (y Int)) Int (ite (>= x 0) (mod x y) (- (mod (- x) y))))
;; "mod"
(define-fun mod1 ((x Int) (y Int)) Int
  (ite (<= 0 y) (mod x y) (- (mod (- x) y))))

;; "rotate_left"
(declare-fun rotate_left1 ((_ BitVec 32)
  Int) (_ BitVec 32))

;; "pow2"
(declare-fun pow2 (Int) Int)

(declare-const two_power_size_minus_one Int)

;; "two_power_size_minus_one_val"
(assert (= two_power_size_minus_one (pow2 (- 32 1))))

;; "rotate_left_bv_is_rotate_left"
(assert
  (forall ((v (_ BitVec 32)) (n (_ BitVec 32)))
    (= (bvor (bvshl v (bvurem n (_ bv32 32))) (bvlshr v (bvsub (_ bv32 32) (bvurem n (_ bv32 32))))) 
    (rotate_left1
      v
      (bv2nat n)))))

;; "min"
(define-fun min ((x Int) (y Int)) Int
  (ite (<= x y) x y))

;; "max"
(define-fun max ((x Int) (y Int)) Int
  (ite (<= x y) y x))

;; "Min_r"
(assert (forall ((x Int) (y Int)) (=> (<= y x) (= (min x y) y))))

;; "Max_l"
(assert (forall ((x Int) (y Int)) (=> (<= y x) (= (max x y) x))))

;; "Min_comm"
(assert (forall ((x Int) (y Int)) (= (min x y) (min y x))))

;; "Max_comm"
(assert (forall ((x Int) (y Int)) (= (max x y) (max y x))))

;; "Min_assoc"
(assert
  (forall ((x Int) (y Int) (z Int)) (= (min (min x y) z) (min x (min y z)))))

;; "Max_assoc"
(assert
  (forall ((x Int) (y Int) (z Int)) (= (max (max x y) z) (max x (max y z)))))

(declare-sort u32 0)

;; "to_rep"
(declare-fun to_rep (u32) (_ BitVec 32))

;; "of_rep"
(declare-fun of_rep ((_ BitVec 32)) u32)

;; "inversion_axiom"
(assert
  (forall ((x u32)) (! (= (of_rep (to_rep x)) x) :pattern ((to_rep x)) )))

;; "range_axiom"
(assert true)

;; "coerce_axiom"
(assert
  (forall ((x (_ BitVec 32)))
    (! (= (to_rep (of_rep x)) x) :pattern ((to_rep (of_rep x))) )))

(declare-sort map1 0)

;; "has_bounds"
(declare-fun has_bounds (map1
  Int
  Int) Bool)

;; "get"
(declare-fun get (map1
  Int) u32)

;; "set"
(declare-fun set (map1
  Int
  u32) map1)

;; "set_eq"
(assert
  (forall ((a map1) (i Int) (v u32))
    (! (= (get (set a i v) i) v) :pattern ((set a i v)) )))

;; "set_neq"
(assert
  (forall ((a map1) (i Int) (v u32))
    (! (forall ((j Int))
         (! (=> (not (= i j)) (= (get (set a i v) j) (get a j))) :pattern (
         (get
           a
           j)) :pattern ((get (set a i v) j)) )) :pattern ((set a i v)) )))

;; "set_has_bounds"
(assert
  (forall ((a map1) (i Int) (f Int) (l Int) (v u32))
    (! (=>
         (and (<= f i) (<= i l))
         (=> (has_bounds a f l) (has_bounds (set a i v) f l))) :pattern (
    (has_bounds
      (set a i v)
      f
      l)) )))

;; "slide"
(declare-fun slide (map1
  Int
  Int) map1)

;; "slide_eq"
(assert
  (forall ((a map1) (first Int))
    (! (= (slide a first first) a) :pattern ((slide a first first)) )))

;; "slide_def"
(assert
  (forall ((a map1) (old_first Int) (new_first Int))
    (! (and
         (forall ((i Int))
           (! (= (get (slide a old_first new_first) i) (get
                                                         a
                                                         (- i (- new_first old_first)))) :pattern (
           (get
             (slide a old_first new_first)
             i)) ))
         (forall ((new_last Int))
           (! (=>
                (has_bounds a old_first (- new_last (- new_first old_first)))
                (has_bounds (slide a old_first new_first) new_first new_last)) :pattern (
           (has_bounds
             (slide a old_first new_first)
             new_first
             new_last)) ))) :pattern ((slide a old_first new_first)) )))

;; "slice"
(declare-fun slice (map1
  Int
  Int) map1)

;; "slice_eq"
(assert
  (forall ((a map1) (f Int) (l Int))
    (! (=> (has_bounds a f l) (= (slice a f l) a)) :pattern ((slice a f l)
    (has_bounds a f l)) )))

;; "slice_slice"
(assert
  (forall ((a map1) (f1 Int) (l1 Int) (f2 Int) (l2 Int))
    (! (=>
         (and (<= f1 f2) (<= l2 l1))
         (= (slice (slice a f1 l1) f2 l2) (slice a f2 l2))) :pattern (
    (slice
      (slice a f1 l1)
      f2
      l2)) )))

;; "slice_def"
(assert
  (forall ((a map1) (f Int) (l Int))
    (! (forall ((i Int))
         (! (=> (and (<= f i) (<= i l)) (= (get (slice a f l) i) (get a i))) :pattern (
         (get
           (slice a f l)
           i)) :pattern ((get a i)) )) :pattern ((slice a f l)) )))

;; "slice_has_bounds"
(assert
  (forall ((a map1) (f Int) (l Int))
    (! (has_bounds (slice a f l) f l) :pattern ((has_bounds
                                                  (slice a f l)
                                                  f
                                                  l)) )))

(declare-datatypes ((us_split_fields 0))
  (((us_split_fieldsqtmk (rec__ada___sparknacl__aes__aes256_key__f map1)))))

(declare-datatypes ((us_rep 0))
  (((us_repqtmk (us_split_fields1 us_split_fields)))))

(declare-datatypes ((u32__init_wrapper 0))
  (((u32__init_wrapperqtmk (rec__value u32)(us_attr__init Bool)))))

(declare-sort map2 0)

;; "has_bounds"
(declare-fun has_bounds1 (map2
  Int
  Int) Bool)

;; "get"
(declare-fun get1 (map2
  Int) u32__init_wrapper)

;; "convert"
(declare-fun convert (map1) map2)

;; "convert__def"
(assert
  (forall ((a map1))
    (let ((b (convert a)))
      (forall ((temp___170 Int))
        (and
          (= (us_attr__init
               (u32__init_wrapperqtmk
                 (of_rep (to_rep (get a temp___170)))
                 true)) (us_attr__init (get1 b temp___170)))
          (= (to_rep
               (rec__value
                 (u32__init_wrapperqtmk
                   (of_rep (to_rep (get a temp___170)))
                   true))) (to_rep (rec__value (get1 b temp___170)))))))))

;; "dynamic_invariant"
(define-fun dynamic_invariant ((temp___expr_376 us_rep) (temp___is_init_372 Bool) (temp___skip_constant_373 Bool) (temp___do_toplevel_374 Bool) (temp___do_typ_inv_375 Bool)) Bool
  (has_bounds
    (rec__ada___sparknacl__aes__aes256_key__f
      (us_split_fields1 temp___expr_376))
    0
    7))

(declare-sort map3 0)

;; "has_bounds"
(declare-fun has_bounds2 (map3
  Int
  Int) Bool)

;; "get"
(declare-fun get2 (map3
  Int) map2)

;; "set"
(declare-fun set1 (map3
  Int
  map2) map3)

;; "set_eq"
(assert
  (forall ((a map3) (i Int) (v map2))
    (! (= (get2 (set1 a i v) i) v) :pattern ((set1 a i v)) )))

;; "set_neq"
(assert
  (forall ((a map3) (i Int) (v map2))
    (! (forall ((j Int))
         (! (=> (not (= i j)) (= (get2 (set1 a i v) j) (get2 a j))) :pattern (
         (get2
           a
           j)) :pattern ((get2 (set1 a i v) j)) )) :pattern ((set1 a i v)) )))

;; "set_has_bounds"
(assert
  (forall ((a map3) (i Int) (f Int) (l Int) (v map2))
    (! (=>
         (and (<= f i) (<= i l))
         (=> (has_bounds2 a f l) (has_bounds2 (set1 a i v) f l))) :pattern (
    (has_bounds2
      (set1 a i v)
      f
      l)) )))

;; "slice"
(declare-fun slice1 (map3
  Int
  Int) map3)

;; "slice_eq"
(assert
  (forall ((a map3) (f Int) (l Int))
    (! (=> (has_bounds2 a f l) (= (slice1 a f l) a)) :pattern ((slice1 a f l)
    (has_bounds2 a f l)) )))

;; "slice_slice"
(assert
  (forall ((a map3) (f1 Int) (l1 Int) (f2 Int) (l2 Int))
    (! (=>
         (and (<= f1 f2) (<= l2 l1))
         (= (slice1 (slice1 a f1 l1) f2 l2) (slice1 a f2 l2))) :pattern (
    (slice1
      (slice1 a f1 l1)
      f2
      l2)) )))

;; "slice_def"
(assert
  (forall ((a map3) (f Int) (l Int))
    (! (forall ((i Int))
         (! (=>
              (and (<= f i) (<= i l))
              (= (get2 (slice1 a f l) i) (get2 a i))) :pattern ((get2
                                                                  (slice1
                                                                    a
                                                                    f
                                                                    l)
                                                                  i)) :pattern (
         (get2
           a
           i)) )) :pattern ((slice1 a f l)) )))

;; "slice_has_bounds"
(assert
  (forall ((a map3) (f Int) (l Int))
    (! (has_bounds2 (slice1 a f l) f l) :pattern ((has_bounds2
                                                    (slice1 a f l)
                                                    f
                                                    l)) )))

;; "in_range"
(define-fun in_range ((x Int)) Bool
  (and (<= 0 x) (<= x 14)))

;; "__is_initialized"
(define-fun us_is_initialized ((temp___expr_464 map2)) Bool
  (forall ((temp___465 Int))
    (=>
      (and (<= 0 temp___465) (<= temp___465 3))
      (= (us_attr__init (get1 temp___expr_464 temp___465)) true))))

;; "dynamic_invariant_r"
(define-fun dynamic_invariant_r ((temp___expr_483 map3) (temp___is_init_479 Bool) (temp___skip_constant_480 Bool) (temp___do_toplevel_481 Bool) (temp___do_typ_inv_482 Bool)) Bool
  (and
    (has_bounds2 temp___expr_483 0 14)
    (forall ((temp___484 Int))
      (=>
        (and (<= 0 temp___484) (<= temp___484 14))
        (has_bounds1 (get2 temp___expr_483 temp___484) 0 3)))))

(declare-const key us_rep)

;; "sbox"
(declare-fun sbox ((_ BitVec 32)) (_ BitVec 32))

;; "sbox__function_guard"
(declare-fun sbox__function_guard ((_ BitVec 32)
  (_ BitVec 32)) Bool)

;; "x_times"
(declare-fun x_times ((_ BitVec 32)) (_ BitVec 32))

;; "x_times__function_guard"
(declare-fun x_times__function_guard ((_ BitVec 32)
  (_ BitVec 32)) Bool)

(declare-sort tinteger_32B 0)

;; "tinteger_32B'int"
(declare-fun tinteger_32Bqtint (tinteger_32B) Int)

;; "tinteger_32B'axiom"
(assert
  (forall ((i tinteger_32B))
    (and
      (<= (- 2147483648) (tinteger_32Bqtint i))
      (<= (tinteger_32Bqtint i) 2147483647))))

;; "in_range"
(define-fun in_range1 ((x Int)) Bool
  (and (<= (- 2147483648) x) (<= x 2147483647)))

;; "to_rep"
(define-fun to_rep1 ((x tinteger_32B)) Int
  (tinteger_32Bqtint x))

;; "of_rep"
(declare-fun of_rep1 (Int) tinteger_32B)

;; "inversion_axiom"
(assert
  (forall ((x tinteger_32B))
    (! (= (of_rep1 (to_rep1 x)) x) :pattern ((to_rep1 x)) )))

;; "range_axiom"
(assert
  (forall ((x tinteger_32B))
    (! (in_range1 (to_rep1 x)) :pattern ((to_rep1 x)) )))

;; "coerce_axiom"
(assert
  (forall ((x Int))
    (! (=> (in_range1 x) (= (to_rep1 (of_rep1 x)) x)) :pattern ((to_rep1
                                                                  (of_rep1 x))) )))

(declare-datatypes ((t 0))
  (((tqtmk (rec__first tinteger_32B)(rec__last tinteger_32B)))))

;; "mk"
(declare-fun mk (Int
  Int) t)

;; "mk_def"
(assert
  (forall ((f Int) (l Int))
    (! (=>
         (in_range1 f)
         (=>
           (in_range1 l)
           (and
             (= (to_rep1 (rec__first (mk f l))) f)
             (= (to_rep1 (rec__last (mk f l))) l)))) :pattern ((mk f l)) )))

(declare-datatypes ((us_t 0))
  (((us_tqtmk (elts map1)(rt t)))))

;; "of_array"
(define-fun of_array ((a map1) (f Int) (l Int)) us_t
  (us_tqtmk a (mk f l)))

(declare-datatypes ((t1 0))
  (((tqtmk1 (rec__first1 tinteger_32B)(rec__last1 tinteger_32B)))))

;; "mk"
(declare-fun mk1 (Int
  Int) t1)

;; "mk_def"
(assert
  (forall ((f Int) (l Int))
    (! (=>
         (in_range1 f)
         (=>
           (in_range1 l)
           (and
             (= (to_rep1 (rec__first1 (mk1 f l))) f)
             (= (to_rep1 (rec__last1 (mk1 f l))) l)))) :pattern ((mk1 f l)) )))

(declare-datatypes ((us_t1 0))
  (((us_tqtmk1 (elts1 map3)(rt1 t1)))))

;; "of_array"
(define-fun of_array1 ((a map3) (f Int) (l Int)) us_t1
  (us_tqtmk1 a (mk1 f l)))

;; Goal "def'vc"
;; File "sparknacl-aes.ads", line 55, characters 0-0
(assert
  (not
  (forall ((round_keys map3))
    (=>
      (dynamic_invariant key true false true true)
      (=>
        (dynamic_invariant_r round_keys false false true true)
        (forall ((key_index Int))
          (=>
            (= key_index 0)
            (=>
              (in_range key_index)
              (forall ((rcon (_ BitVec 32)))
                (=>
                  (= rcon #x01000000)
                  (=>
                    (=>
                      (<= 0 3)
                      (and (and (<= 0 0) (<= 0 7)) (and (<= 0 3) (<= 3 7))))
                    (=>
                      (ite (<= 0 3) (<= 0 3) (< 3 0))
                      (forall ((a map1))
                        (=>
                          (= a (slide
                                 (slice
                                   (rec__ada___sparknacl__aes__aes256_key__f
                                     (us_split_fields1 key))
                                   0
                                   3)
                                 0
                                 0))
                          (=>
                            (has_bounds a 0 3)
                            (=>
                              (=>
                                (<= 4 7)
                                (and
                                  (and (<= 0 4) (<= 4 7))
                                  (and (<= 0 7) (<= 7 7))))
                              (=>
                                (ite (<= 4 7)
                                  (and (<= 0 3) (= (- 7 4) (- 3 0)))
                                  (< 3 0))
                                (forall ((b map1))
                                  (=>
                                    (= b (slide
                                           (slice
                                             (rec__ada___sparknacl__aes__aes256_key__f
                                               (us_split_fields1 key))
                                             4
                                             7)
                                           4
                                           0))
                                    (=>
                                      (has_bounds b 0 3)
                                      (forall ((round_keys1 map3))
                                        (=>
                                          (= round_keys1 (set1
                                                           round_keys
                                                           key_index
                                                           (convert a)))
                                          (=>
                                            (not (= key_index 2147483647))
                                            (let ((o (+ key_index 1)))
                                              (=>
                                                (in_range o)
                                                (forall ((key_index1 Int))
                                                  (=>
                                                    (= key_index1 o)
                                                    (forall ((round_keys2 map3))
                                                      (=>
                                                        (= round_keys2 
                                                        (set1
                                                          round_keys1
                                                          key_index1
                                                          (convert b)))
                                                        (=>
                                                          (=>
                                                            (<= 0 key_index1)
                                                            (and
                                                              (and
                                                                (<= 0 0)
                                                                (<= 0 14))
                                                              (and
                                                                (<= 0 key_index1)
                                                                (<= key_index1 14))))
                                                          (forall ((round_keys3 map3) (key_index2 Int) (rcon1 (_ BitVec 32)) (a1 map1) (b1 map1))
                                                            (=>
                                                              (and
                                                                (and
                                                                  (< key_index2 14)
                                                                  (= 
                                                                  (mod1
                                                                    (- 14 key_index2)
                                                                    2) 1))
                                                                (forall 
                                                                  ((temp___1258 Int))
                                                                  (=>
                                                                    (and
                                                                    (<= 0 temp___1258)
                                                                    (<= temp___1258 key_index2))
                                                                    (us_is_initialized
                                                                    (get2
                                                                    (slice1
                                                                    round_keys3
                                                                    0
                                                                    key_index2)
                                                                    temp___1258)))))
                                                              (=>
                                                                (and
                                                                  (and
                                                                    (and
                                                                    (dynamic_invariant_r
                                                                    round_keys3
                                                                    false
                                                                    true
                                                                    true
                                                                    true)
                                                                    (in_range
                                                                    key_index2))
                                                                    (has_bounds
                                                                    a1
                                                                    0
                                                                    3))
                                                                  (has_bounds
                                                                    b1
                                                                    0
                                                                    3))
                                                                (forall 
                                                                  ((o1 (_ BitVec 32)))
                                                                  (=>
                                                                    (= 
                                                                    (to_rep
                                                                    (get
                                                                    a1
                                                                    0)) o1)
                                                                    (forall 
                                                                    ((o2 u32))
                                                                    (=>
                                                                    (= 
                                                                    (to_rep
                                                                    o2) (bvxor o1 rcon1))
                                                                    (forall 
                                                                    ((a2 map1))
                                                                    (=>
                                                                    (= a2 
                                                                    (set
                                                                    a1
                                                                    0
                                                                    o2))
                                                                    (forall 
                                                                    ((o3 (_ BitVec 32)))
                                                                    (=>
                                                                    (= 
                                                                    (to_rep
                                                                    (get
                                                                    b1
                                                                    3)) o3)
                                                                    (let ((o4 (bvor (bvshl o3 (bvurem ((_ int2bv 32) 8) (_ bv32 32))) (bvlshr o3 (bvsub (_ bv32 32) (bvurem ((_ int2bv 32) 8) (_ bv32 32)))))))
                                                                    (let ((o5 
                                                                    (sbox
                                                                    o4)))
                                                                    (=>
                                                                    (sbox__function_guard
                                                                    o5
                                                                    o4)
                                                                    (forall 
                                                                    ((o6 (_ BitVec 32)))
                                                                    (=>
                                                                    (= 
                                                                    (to_rep
                                                                    (get
                                                                    a2
                                                                    0)) o6)
                                                                    (forall 
                                                                    ((o7 u32))
                                                                    (=>
                                                                    (= 
                                                                    (to_rep
                                                                    o7) (bvxor o6 o5))
                                                                    (forall 
                                                                    ((a3 map1))
                                                                    (=>
                                                                    (= a3 
                                                                    (set
                                                                    a2
                                                                    0
                                                                    o7))
                                                                    (forall 
                                                                    ((a4 map1))
                                                                    (=>
                                                                    (has_bounds
                                                                    a4
                                                                    0
                                                                    3)
                                                                    (=>
                                                                    (x_times__function_guard
                                                                    (x_times
                                                                    rcon1)
                                                                    rcon1)
                                                                    (=>
                                                                    (not
                                                                    (= key_index2 2147483647))
                                                                    (let ((o8 (+ key_index2 1)))
                                                                    (=>
                                                                    (in_range
                                                                    o8)
                                                                    (forall 
                                                                    ((key_index3 Int))
                                                                    (=>
                                                                    (= key_index3 o8)
                                                                    (forall 
                                                                    ((round_keys4 map3))
                                                                    (=>
                                                                    (= round_keys4 
                                                                    (set1
                                                                    round_keys3
                                                                    key_index3
                                                                    (convert
                                                                    a4)))
                                                                    (=>
                                                                    (not
                                                                    (= key_index3 14))
                                                                    (forall 
                                                                    ((o9 (_ BitVec 32)))
                                                                    (=>
                                                                    (= 
                                                                    (to_rep
                                                                    (get
                                                                    a4
                                                                    3)) o9)
                                                                    (let ((o10 
                                                                    (sbox
                                                                    o9)))
                                                                    (=>
                                                                    (sbox__function_guard
                                                                    o10
                                                                    o9)
                                                                    (forall 
                                                                    ((o11 (_ BitVec 32)))
                                                                    (=>
                                                                    (= 
                                                                    (to_rep
                                                                    (get
                                                                    b1
                                                                    0)) o11)
                                                                    (forall 
                                                                    ((o12 u32))
                                                                    (=>
                                                                    (= 
                                                                    (to_rep
                                                                    o12) (bvxor o11 o10))
                                                                    (forall 
                                                                    ((b2 map1))
                                                                    (=>
                                                                    (= b2 
                                                                    (set
                                                                    b1
                                                                    0
                                                                    o12))
                                                                    (forall 
                                                                    ((b3 map1))
                                                                    (=>
                                                                    (has_bounds
                                                                    b3
                                                                    0
                                                                    3)
                                                                    (=>
                                                                    (not
                                                                    (= key_index3 2147483647))
                                                                    (let ((o13 (+ key_index3 1)))
                                                                    (=>
                                                                    (in_range
                                                                    o13)
                                                                    (forall 
                                                                    ((key_index4 Int))
                                                                    (=>
                                                                    (= key_index4 o13)
                                                                    (forall 
                                                                    ((round_keys5 map3))
                                                                    (=>
                                                                    (= round_keys5 
                                                                    (set1
                                                                    round_keys4
                                                                    key_index4
                                                                    (convert
                                                                    b3)))
                                                                    (=>
                                                                    (<= 0 key_index4)
                                                                    (<= key_index4 14))))))))))))))))))))))))))))))))))))))))))))))))))))))))))))))))))))))))))))))))))

(check-sat)
